NAME          
ROWS
 N  OBJ
 L  c1
COLUMNS
    MARKER    'MARKER'                 'INTORG'
    x[1]      c1        672
    x[1]      OBJ       -651
    x[2]      c1        438
    x[2]      OBJ       -369
    x[3]      c1        249
    x[3]      OBJ       -241
    x[4]      c1        791
    x[4]      OBJ       -728
    x[5]      c1        -1
    x[5]      OBJ       -31
    x[6]      c1        471
    x[6]      OBJ       -453
    x[7]      c1        813
    x[7]      OBJ       -892
    x[8]      c1        462
    x[8]      OBJ       -369
    x[9]      c1        713
    x[9]      OBJ       -811
    x[10]     c1        201
    x[10]     OBJ       -145
    x[11]     c1        364
    x[11]     OBJ       -278
    x[12]     c1        473
    x[12]     OBJ       -533
    x[13]     c1        990
    x[13]     OBJ       -902
    x[14]     c1        755
    x[14]     OBJ       -850
    x[15]     c1        94
    x[15]     OBJ       -71
    x[16]     c1        805
    x[16]     OBJ       -728
    x[17]     c1        889
    x[17]     OBJ       -963
    x[18]     c1        560
    x[18]     OBJ       -597
    x[19]     c1        356
    x[19]     OBJ       -363
    x[20]     c1        839
    x[20]     OBJ       -890
RHS
    rhs       c1        5467
RANGES
BOUNDS
 BV bounds    x[1]
 BV bounds    x[2]
 BV bounds    x[3]
 BV bounds    x[4]
 BV bounds    x[5]
 BV bounds    x[6]
 BV bounds    x[7]
 BV bounds    x[8]
 BV bounds    x[9]
 BV bounds    x[10]
 BV bounds    x[11]
 BV bounds    x[12]
 BV bounds    x[13]
 BV bounds    x[14]
 BV bounds    x[15]
 BV bounds    x[16]
 BV bounds    x[17]
 BV bounds    x[18]
 BV bounds    x[19]
 BV bounds    x[20]
ENDATA
